\ Model Staff Scheduling Problem with Shift Overlap Constraints
\ LP format - for model browsing. Use MPS format to capture full model detail.
Minimize
  x[0,0] + x[0,1] + x[0,2] + x[0,3] + x[0,4] + x[1,0] + x[1,1] + x[1,2]
   + x[1,3] + x[1,4] + x[2,0] + x[2,1] + x[2,2] + x[2,3] + x[2,4] + x[3,0]
   + x[3,1] + x[3,2] + x[3,3] + x[3,4] + x[4,0] + x[4,1] + x[4,2] + x[4,3]
   + x[4,4] + x[5,0] + x[5,1] + x[5,2] + x[5,3] + x[5,4] + x[6,0] + x[6,1]
   + x[6,2] + x[6,3] + x[6,4] + x[7,0] + x[7,1] + x[7,2] + x[7,3] + x[7,4]
   + x[8,0] + x[8,1] + x[8,2] + x[8,3] + x[8,4] + x[9,0] + x[9,1] + x[9,2]
   + x[9,3] + x[9,4]
Subject To
 R0: x[0,0] <= 0.4000187711044836
 R1: x[0,1] <= 6.313423361528157
 R2: x[0,2] <= 2.097046384920435
 R3: x[0,3] <= 0.1148406159991842
 R4: x[0,4] <= 6.324023779117637
 R5: x[1,0] <= 2.485936660453534
 R6: x[1,1] <= 3.388725451539658
 R7: x[1,2] <= 2.913500159384566
 R8: x[1,3] <= 6.050130393689636
 R9: x[1,4] <= 2.719333919138786
 R10: x[2,0] <= 7.139708878349316
 R11: x[2,1] <= 4.56968119446166
 R12: x[2,2] <= 6.260134694158514
 R13: x[2,3] <= 2.468171225071274
 R14: x[2,4] <= 2.551458058640828
 R15: x[3,0] <= 1.765861403482408
 R16: x[3,1] <= 6.250075966502538
 R17: x[3,2] <= 6.442117012060327
 R18: x[3,3] <= 0.231130684921232
 R19: x[3,4] <= 1.046846642644204
 R20: x[4,0] <= 6.856298612489137
 R21: x[4,1] <= 2.956237331514867
 R22: x[4,2] <= 6.391439700391087
 R23: x[4,3] <= 7.007085167244696
 R24: x[4,4] <= 6.266232855964072
 R25: x[5,0] <= 6.834305801006158
 R26: x[5,1] <= 1.474602864409965
 R27: x[5,2] <= 3.349871774703701
 R28: x[5,3] <= 5.604787366938021
 R29: x[5,4] <= 0.433539218211096
 R30: x[6,0] <= 3.171923079051018
 R31: x[6,1] <= 2.672016656616357
 R32: x[6,2] <= 4.865921160401313
 R33: x[6,3] <= 1.831216926893728
 R34: x[6,4] <= 0.4295925503466185
 R35: x[7,0] <= 5.558340426201546
 R36: x[7,1] <= 5.402140404313543
 R37: x[7,2] <= 1.282113126252621
 R38: x[7,3] <= 1.493904418850796
 R39: x[7,4] <= 1.399263271817912
 R40: x[8,0] <= 2.352898608508345
 R41: x[8,1] <= 7.706231758715901
 R42: x[8,2] <= 6.385535207505604
 R43: x[8,3] <= 3.42545586611831
 R44: x[8,4] <= 7.050833670995527
 R45: x[9,0] <= 5.551597038307436
 R46: x[9,1] <= 3.791587430871502
 R47: x[9,2] <= 3.209888764282259
 R48: x[9,3] <= 6.110471267462088
 R49: x[9,4] <= 4.906185034950511
 R50: x[0,0] + x[0,1] + x[0,2] + x[0,3] + x[0,4] + x[1,0] + x[1,1] + x[1,2]
   + x[1,3] + x[1,4] + x[2,0] + x[2,1] + x[2,2] + x[2,3] + x[2,4] + x[3,0]
   + x[3,1] + x[3,2] + x[3,3] + x[3,4] + x[4,0] + x[4,1] + x[4,2] + x[4,3]
   + x[4,4] + x[5,0] + x[5,1] + x[5,2] + x[5,3] + x[5,4] + x[6,0] + x[6,1]
   + x[6,2] + x[6,3] + x[6,4] + x[7,0] + x[7,1] + x[7,2] + x[7,3] + x[7,4]
   + x[8,0] + x[8,1] + x[8,2] + x[8,3] + x[8,4] + x[9,0] + x[9,1] + x[9,2]
   + x[9,3] + x[9,4] >= 24.95995122907562
 R51: x[0,0] + x[1,0] + x[2,0] + x[3,0] + x[4,0] + x[5,0] + x[6,0] + x[7,0]
   + x[8,0] + x[9,0] >= 1.158130156649314
 R52: x[0,1] + x[1,1] + x[2,1] + x[3,1] + x[4,1] + x[5,1] + x[6,1] + x[7,1]
   + x[8,1] + x[9,1] >= 1.158130156649314
 R53: x[0,1] + x[1,1] + x[2,1] + x[3,1] + x[4,1] + x[5,1] + x[6,1] + x[7,1]
   + x[8,1] + x[9,1] >= 1.158130156649314
 R54: x[0,2] + x[1,2] + x[2,2] + x[3,2] + x[4,2] + x[5,2] + x[6,2] + x[7,2]
   + x[8,2] + x[9,2] >= 1.158130156649314
 R55: x[0,2] + x[1,2] + x[2,2] + x[3,2] + x[4,2] + x[5,2] + x[6,2] + x[7,2]
   + x[8,2] + x[9,2] >= 1.158130156649314
 R56: x[0,3] + x[1,3] + x[2,3] + x[3,3] + x[4,3] + x[5,3] + x[6,3] + x[7,3]
   + x[8,3] + x[9,3] >= 1.158130156649314
 R57: x[0,3] + x[1,3] + x[2,3] + x[3,3] + x[4,3] + x[5,3] + x[6,3] + x[7,3]
   + x[8,3] + x[9,3] >= 1.158130156649314
 R58: x[0,4] + x[1,4] + x[2,4] + x[3,4] + x[4,4] + x[5,4] + x[6,4] + x[7,4]
   + x[8,4] + x[9,4] >= 1.158130156649314
Bounds
End
